p cnf 219 955
-1 -33 0
-2 -33 0
1 2 33 0
1 2 -34 0
-1 -2 -34 0
-1 2 34 0
1 -2 34 0
33 -35 0
-3 -35 0
3 -33 35 0
3 -33 -36 0
-3 33 -36 0
3 33 36 0
-3 -33 36 0
35 -37 0
-4 -37 0
4 -35 37 0
4 -35 -38 0
-4 35 -38 0
4 35 38 0
-4 -35 38 0
37 -39 0
-5 -39 0
5 -37 39 0
5 -37 -40 0
-5 37 -40 0
5 37 40 0
-5 -37 40 0
39 -41 0
-6 -41 0
6 -39 41 0
6 -39 -42 0
-6 39 -42 0
6 39 42 0
-6 -39 42 0
41 -43 0
-7 -43 0
7 -41 43 0
7 -41 -44 0
-7 41 -44 0
7 41 44 0
-7 -41 44 0
43 -45 0
-8 -45 0
8 -43 45 0
8 -43 -46 0
-8 43 -46 0
8 43 46 0
-8 -43 46 0
5 -47 0
1 -47 0
-1 -5 47 0
-1 -5 -48 0
1 5 -48 0
1 -5 48 0
-1 5 48 0
-2 -6 49 0
-6 -47 49 0
-2 -47 49 0
2 6 -49 0
6 47 -49 0
2 47 -49 0
6 -49 -50 0
2 -49 -50 0
47 -49 -50 0
-6 49 50 0
-2 49 50 0
-47 49 50 0
-2 -6 -47 50 0
2 6 47 -50 0
-3 -7 51 0
-7 -49 51 0
-3 -49 51 0
3 7 -51 0
7 49 -51 0
3 49 -51 0
7 -51 -52 0
3 -51 -52 0
49 -51 -52 0
-7 51 52 0
-3 51 52 0
-49 51 52 0
-3 -7 -49 52 0
3 7 49 -52 0
-4 -8 53 0
-8 -51 53 0
-4 -51 53 0
4 8 -53 0
8 51 -53 0
4 51 -53 0
8 -53 -54 0
4 -53 -54 0
51 -53 -54 0
-8 53 54 0
-4 53 54 0
-51 53 54 0
-4 -8 -51 54 0
4 8 51 -54 0
5 -55 0
53 -55 0
-5 -53 55 0
-5 -53 -56 0
5 53 -56 0
-5 53 56 0
5 -53 56 0
6 -57 0
55 -57 0
-6 -55 57 0
-6 -55 -58 0
6 55 -58 0
-6 55 58 0
6 -55 58 0
7 -59 0
57 -59 0
-7 -57 59 0
-7 -57 -60 0
7 57 -60 0
-7 57 60 0
7 -57 60 0
8 -61 0
59 -61 0
-8 -59 61 0
-8 -59 -62 0
8 59 -62 0
-8 59 62 0
8 -59 62 0
-1 -63 0
-2 -63 0
1 2 63 0
1 2 -64 0
-1 -2 -64 0
-1 2 64 0
1 -2 64 0
63 -65 0
-3 -65 0
3 -63 65 0
3 -63 -66 0
-3 63 -66 0
3 63 66 0
-3 -63 66 0
65 -67 0
-4 -67 0
4 -65 67 0
4 -65 -68 0
-4 65 -68 0
4 65 68 0
-4 -65 68 0
67 -69 0
-48 -69 0
48 -67 69 0
48 -67 -70 0
-48 67 -70 0
48 67 70 0
-48 -67 70 0
69 -71 0
-50 -71 0
50 -69 71 0
50 -69 -72 0
-50 69 -72 0
50 69 72 0
-50 -69 72 0
71 -73 0
-52 -73 0
52 -71 73 0
52 -71 -74 0
-52 71 -74 0
52 71 74 0
-52 -71 74 0
73 -75 0
-54 -75 0
54 -73 75 0
54 -73 -76 0
-54 73 -76 0
54 73 76 0
-54 -73 76 0
75 -77 0
-56 -77 0
56 -75 77 0
56 -75 -78 0
-56 75 -78 0
56 75 78 0
-56 -75 78 0
77 -79 0
-58 -79 0
58 -77 79 0
58 -77 -80 0
-58 77 -80 0
58 77 80 0
-58 -77 80 0
79 -81 0
-60 -81 0
60 -79 81 0
60 -79 -82 0
-60 79 -82 0
60 79 82 0
-60 -79 82 0
81 -83 0
-62 -83 0
62 -81 83 0
62 -81 -84 0
-62 81 -84 0
62 81 84 0
-62 -81 84 0
83 -85 0
-61 -85 0
61 -83 85 0
61 -83 -86 0
-61 83 -86 0
61 83 86 0
-61 -83 86 0
-9 -87 0
-10 -87 0
9 10 87 0
9 10 -88 0
-9 -10 -88 0
-9 10 88 0
9 -10 88 0
87 -89 0
-11 -89 0
11 -87 89 0
11 -87 -90 0
-11 87 -90 0
11 87 90 0
-11 -87 90 0
89 -91 0
-12 -91 0
12 -89 91 0
12 -89 -92 0
-12 89 -92 0
12 89 92 0
-12 -89 92 0
91 -93 0
-13 -93 0
13 -91 93 0
13 -91 -94 0
-13 91 -94 0
13 91 94 0
-13 -91 94 0
93 -95 0
-14 -95 0
14 -93 95 0
14 -93 -96 0
-14 93 -96 0
14 93 96 0
-14 -93 96 0
95 -97 0
-15 -97 0
15 -95 97 0
15 -95 -98 0
-15 95 -98 0
15 95 98 0
-15 -95 98 0
97 -99 0
-16 -99 0
16 -97 99 0
16 -97 -100 0
-16 97 -100 0
16 97 100 0
-16 -97 100 0
10 -101 0
9 -101 0
-9 -10 101 0
-9 -10 -102 0
9 10 -102 0
9 -10 102 0
-9 10 102 0
-10 -11 103 0
-11 -101 103 0
-10 -101 103 0
10 11 -103 0
11 101 -103 0
10 101 -103 0
11 -103 -104 0
10 -103 -104 0
101 -103 -104 0
-11 103 104 0
-10 103 104 0
-101 103 104 0
-10 -11 -101 104 0
10 11 101 -104 0
-11 -12 105 0
-12 -103 105 0
-11 -103 105 0
11 12 -105 0
12 103 -105 0
11 103 -105 0
12 -105 -106 0
11 -105 -106 0
103 -105 -106 0
-12 105 106 0
-11 105 106 0
-103 105 106 0
-11 -12 -103 106 0
11 12 103 -106 0
-12 -13 107 0
-13 -105 107 0
-12 -105 107 0
12 13 -107 0
13 105 -107 0
12 105 -107 0
13 -107 -108 0
12 -107 -108 0
105 -107 -108 0
-13 107 108 0
-12 107 108 0
-105 107 108 0
-12 -13 -105 108 0
12 13 105 -108 0
-13 -14 109 0
-14 -107 109 0
-13 -107 109 0
13 14 -109 0
14 107 -109 0
13 107 -109 0
14 -109 -110 0
13 -109 -110 0
107 -109 -110 0
-14 109 110 0
-13 109 110 0
-107 109 110 0
-13 -14 -107 110 0
13 14 107 -110 0
-14 -15 111 0
-15 -109 111 0
-14 -109 111 0
14 15 -111 0
15 109 -111 0
14 109 -111 0
15 -111 -112 0
14 -111 -112 0
109 -111 -112 0
-15 111 112 0
-14 111 112 0
-109 111 112 0
-14 -15 -109 112 0
14 15 109 -112 0
-15 -16 113 0
-16 -111 113 0
-15 -111 113 0
15 16 -113 0
16 111 -113 0
15 111 -113 0
16 -113 -114 0
15 -113 -114 0
111 -113 -114 0
-16 113 114 0
-15 113 114 0
-111 113 114 0
-15 -16 -111 114 0
15 16 111 -114 0
16 -115 0
113 -115 0
-16 -113 115 0
-16 -113 -116 0
16 113 -116 0
-16 113 116 0
16 -113 116 0
104 -117 0
9 -117 0
-9 -104 117 0
-9 -104 -118 0
9 104 -118 0
9 -104 118 0
-9 104 118 0
-10 -106 119 0
-106 -117 119 0
-10 -117 119 0
10 106 -119 0
106 117 -119 0
10 117 -119 0
106 -119 -120 0
10 -119 -120 0
117 -119 -120 0
-106 119 120 0
-10 119 120 0
-117 119 120 0
-10 -106 -117 120 0
10 106 117 -120 0
-11 -108 121 0
-108 -119 121 0
-11 -119 121 0
11 108 -121 0
108 119 -121 0
11 119 -121 0
108 -121 -122 0
11 -121 -122 0
119 -121 -122 0
-108 121 122 0
-11 121 122 0
-119 121 122 0
-11 -108 -119 122 0
11 108 119 -122 0
-12 -110 123 0
-110 -121 123 0
-12 -121 123 0
12 110 -123 0
110 121 -123 0
12 121 -123 0
110 -123 -124 0
12 -123 -124 0
121 -123 -124 0
-110 123 124 0
-12 123 124 0
-121 123 124 0
-12 -110 -121 124 0
12 110 121 -124 0
-13 -112 125 0
-112 -123 125 0
-13 -123 125 0
13 112 -125 0
112 123 -125 0
13 123 -125 0
112 -125 -126 0
13 -125 -126 0
123 -125 -126 0
-112 125 126 0
-13 125 126 0
-123 125 126 0
-13 -112 -123 126 0
13 112 123 -126 0
-14 -114 127 0
-114 -125 127 0
-14 -125 127 0
14 114 -127 0
114 125 -127 0
14 125 -127 0
114 -127 -128 0
14 -127 -128 0
125 -127 -128 0
-114 127 128 0
-14 127 128 0
-125 127 128 0
-14 -114 -125 128 0
14 114 125 -128 0
-15 -116 129 0
-116 -127 129 0
-15 -127 129 0
15 116 -129 0
116 127 -129 0
15 127 -129 0
116 -129 -130 0
15 -129 -130 0
127 -129 -130 0
-116 129 130 0
-15 129 130 0
-127 129 130 0
-15 -116 -127 130 0
15 116 127 -130 0
-16 -115 131 0
-115 -129 131 0
-16 -129 131 0
16 115 -131 0
115 129 -131 0
16 129 -131 0
115 -131 -132 0
16 -131 -132 0
129 -131 -132 0
-115 131 132 0
-16 131 132 0
-129 131 132 0
-16 -115 -129 132 0
16 115 129 -132 0
122 -133 0
9 -133 0
-9 -122 133 0
-9 -122 -134 0
9 122 -134 0
9 -122 134 0
-9 122 134 0
-10 -124 135 0
-124 -133 135 0
-10 -133 135 0
10 124 -135 0
124 133 -135 0
10 133 -135 0
124 -135 -136 0
10 -135 -136 0
133 -135 -136 0
-124 135 136 0
-10 135 136 0
-133 135 136 0
-10 -124 -133 136 0
10 124 133 -136 0
-11 -126 137 0
-126 -135 137 0
-11 -135 137 0
11 126 -137 0
126 135 -137 0
11 135 -137 0
126 -137 -138 0
11 -137 -138 0
135 -137 -138 0
-126 137 138 0
-11 137 138 0
-135 137 138 0
-11 -126 -135 138 0
11 126 135 -138 0
-12 -128 139 0
-128 -137 139 0
-12 -137 139 0
12 128 -139 0
128 137 -139 0
12 137 -139 0
128 -139 -140 0
12 -139 -140 0
137 -139 -140 0
-128 139 140 0
-12 139 140 0
-137 139 140 0
-12 -128 -137 140 0
12 128 137 -140 0
-13 -130 141 0
-130 -139 141 0
-13 -139 141 0
13 130 -141 0
130 139 -141 0
13 139 -141 0
130 -141 -142 0
13 -141 -142 0
139 -141 -142 0
-130 141 142 0
-13 141 142 0
-139 141 142 0
-13 -130 -139 142 0
13 130 139 -142 0
-14 -132 143 0
-132 -141 143 0
-14 -141 143 0
14 132 -143 0
132 141 -143 0
14 141 -143 0
132 -143 -144 0
14 -143 -144 0
141 -143 -144 0
-132 143 144 0
-14 143 144 0
-141 143 144 0
-14 -132 -141 144 0
14 132 141 -144 0
-15 -131 145 0
-131 -143 145 0
-15 -143 145 0
15 131 -145 0
131 143 -145 0
15 143 -145 0
131 -145 -146 0
15 -145 -146 0
143 -145 -146 0
-131 145 146 0
-15 145 146 0
-143 145 146 0
-15 -131 -143 146 0
15 131 143 -146 0
16 -147 0
145 -147 0
-16 -145 147 0
-16 -145 -148 0
16 145 -148 0
-16 145 148 0
16 -145 148 0
136 -149 0
9 -149 0
-9 -136 149 0
-9 -136 -150 0
9 136 -150 0
9 -136 150 0
-9 136 150 0
-10 -138 151 0
-138 -149 151 0
-10 -149 151 0
10 138 -151 0
138 149 -151 0
10 149 -151 0
138 -151 -152 0
10 -151 -152 0
149 -151 -152 0
-138 151 152 0
-10 151 152 0
-149 151 152 0
-10 -138 -149 152 0
10 138 149 -152 0
-11 -140 153 0
-140 -151 153 0
-11 -151 153 0
11 140 -153 0
140 151 -153 0
11 151 -153 0
140 -153 -154 0
11 -153 -154 0
151 -153 -154 0
-140 153 154 0
-11 153 154 0
-151 153 154 0
-11 -140 -151 154 0
11 140 151 -154 0
-12 -142 155 0
-142 -153 155 0
-12 -153 155 0
12 142 -155 0
142 153 -155 0
12 153 -155 0
142 -155 -156 0
12 -155 -156 0
153 -155 -156 0
-142 155 156 0
-12 155 156 0
-153 155 156 0
-12 -142 -153 156 0
12 142 153 -156 0
-13 -144 157 0
-144 -155 157 0
-13 -155 157 0
13 144 -157 0
144 155 -157 0
13 155 -157 0
144 -157 -158 0
13 -157 -158 0
155 -157 -158 0
-144 157 158 0
-13 157 158 0
-155 157 158 0
-13 -144 -155 158 0
13 144 155 -158 0
-14 -146 159 0
-146 -157 159 0
-14 -157 159 0
14 146 -159 0
146 157 -159 0
14 157 -159 0
146 -159 -160 0
14 -159 -160 0
157 -159 -160 0
-146 159 160 0
-14 159 160 0
-157 159 160 0
-14 -146 -157 160 0
14 146 157 -160 0
-15 -148 161 0
-148 -159 161 0
-15 -159 161 0
15 148 -161 0
148 159 -161 0
15 159 -161 0
148 -161 -162 0
15 -161 -162 0
159 -161 -162 0
-148 161 162 0
-15 161 162 0
-159 161 162 0
-15 -148 -159 162 0
15 148 159 -162 0
-16 -147 163 0
-147 -161 163 0
-16 -161 163 0
16 147 -163 0
147 161 -163 0
16 161 -163 0
147 -163 -164 0
16 -163 -164 0
161 -163 -164 0
-147 163 164 0
-16 163 164 0
-161 163 164 0
-16 -147 -161 164 0
16 147 161 -164 0
-9 -165 0
-102 -165 0
9 102 165 0
9 102 -166 0
-9 -102 -166 0
-9 102 166 0
9 -102 166 0
165 -167 0
-118 -167 0
118 -165 167 0
118 -165 -168 0
-118 165 -168 0
118 165 168 0
-118 -165 168 0
167 -169 0
-120 -169 0
120 -167 169 0
120 -167 -170 0
-120 167 -170 0
120 167 170 0
-120 -167 170 0
169 -171 0
-134 -171 0
134 -169 171 0
134 -169 -172 0
-134 169 -172 0
134 169 172 0
-134 -169 172 0
171 -173 0
-150 -173 0
150 -171 173 0
150 -171 -174 0
-150 171 -174 0
150 171 174 0
-150 -171 174 0
173 -175 0
-152 -175 0
152 -173 175 0
152 -173 -176 0
-152 173 -176 0
152 173 176 0
-152 -173 176 0
175 -177 0
-154 -177 0
154 -175 177 0
154 -175 -178 0
-154 175 -178 0
154 175 178 0
-154 -175 178 0
177 -179 0
-156 -179 0
156 -177 179 0
156 -177 -180 0
-156 177 -180 0
156 177 180 0
-156 -177 180 0
179 -181 0
-158 -181 0
158 -179 181 0
158 -179 -182 0
-158 179 -182 0
158 179 182 0
-158 -179 182 0
181 -183 0
-160 -183 0
160 -181 183 0
160 -181 -184 0
-160 181 -184 0
160 181 184 0
-160 -181 184 0
183 -185 0
-162 -185 0
162 -183 185 0
162 -183 -186 0
-162 183 -186 0
162 183 186 0
-162 -183 186 0
185 -187 0
-164 -187 0
164 -185 187 0
164 -185 -188 0
-164 185 -188 0
164 185 188 0
-164 -185 188 0
187 -189 0
-163 -189 0
163 -187 189 0
163 -187 -190 0
-163 187 -190 0
163 187 190 0
-163 -187 190 0
1 -191 0
9 -191 0
-1 -9 191 0
-1 -9 -192 0
1 9 -192 0
-1 9 192 0
1 -9 192 0
-2 -102 193 0
-2 -191 193 0
-102 -191 193 0
2 102 -193 0
2 191 -193 0
102 191 -193 0
2 -193 -194 0
102 -193 -194 0
191 -193 -194 0
-2 193 194 0
-102 193 194 0
-191 193 194 0
-2 -102 -191 194 0
2 102 191 -194 0
-3 -118 195 0
-3 -193 195 0
-118 -193 195 0
3 118 -195 0
3 193 -195 0
118 193 -195 0
3 -195 -196 0
118 -195 -196 0
193 -195 -196 0
-3 195 196 0
-118 195 196 0
-193 195 196 0
-3 -118 -193 196 0
3 118 193 -196 0
-4 -120 197 0
-4 -195 197 0
-120 -195 197 0
4 120 -197 0
4 195 -197 0
120 195 -197 0
4 -197 -198 0
120 -197 -198 0
195 -197 -198 0
-4 197 198 0
-120 197 198 0
-195 197 198 0
-4 -120 -195 198 0
4 120 195 -198 0
-48 -134 199 0
-48 -197 199 0
-134 -197 199 0
48 134 -199 0
48 197 -199 0
134 197 -199 0
48 -199 -200 0
134 -199 -200 0
197 -199 -200 0
-48 199 200 0
-134 199 200 0
-197 199 200 0
-48 -134 -197 200 0
48 134 197 -200 0
-50 -150 201 0
-50 -199 201 0
-150 -199 201 0
50 150 -201 0
50 199 -201 0
150 199 -201 0
50 -201 -202 0
150 -201 -202 0
199 -201 -202 0
-50 201 202 0
-150 201 202 0
-199 201 202 0
-50 -150 -199 202 0
50 150 199 -202 0
-52 -152 203 0
-52 -201 203 0
-152 -201 203 0
52 152 -203 0
52 201 -203 0
152 201 -203 0
52 -203 -204 0
152 -203 -204 0
201 -203 -204 0
-52 203 204 0
-152 203 204 0
-201 203 204 0
-52 -152 -201 204 0
52 152 201 -204 0
-54 -154 205 0
-54 -203 205 0
-154 -203 205 0
54 154 -205 0
54 203 -205 0
154 203 -205 0
54 -205 -206 0
154 -205 -206 0
203 -205 -206 0
-54 205 206 0
-154 205 206 0
-203 205 206 0
-54 -154 -203 206 0
54 154 203 -206 0
-56 -156 207 0
-56 -205 207 0
-156 -205 207 0
56 156 -207 0
56 205 -207 0
156 205 -207 0
56 -207 -208 0
156 -207 -208 0
205 -207 -208 0
-56 207 208 0
-156 207 208 0
-205 207 208 0
-56 -156 -205 208 0
56 156 205 -208 0
-58 -158 209 0
-58 -207 209 0
-158 -207 209 0
58 158 -209 0
58 207 -209 0
158 207 -209 0
58 -209 -210 0
158 -209 -210 0
207 -209 -210 0
-58 209 210 0
-158 209 210 0
-207 209 210 0
-58 -158 -207 210 0
58 158 207 -210 0
-60 -160 211 0
-60 -209 211 0
-160 -209 211 0
60 160 -211 0
60 209 -211 0
160 209 -211 0
60 -211 -212 0
160 -211 -212 0
209 -211 -212 0
-60 211 212 0
-160 211 212 0
-209 211 212 0
-60 -160 -209 212 0
60 160 209 -212 0
-62 -162 213 0
-62 -211 213 0
-162 -211 213 0
62 162 -213 0
62 211 -213 0
162 211 -213 0
62 -213 -214 0
162 -213 -214 0
211 -213 -214 0
-62 213 214 0
-162 213 214 0
-211 213 214 0
-62 -162 -211 214 0
62 162 211 -214 0
-61 -164 215 0
-61 -213 215 0
-164 -213 215 0
61 164 -215 0
61 213 -215 0
164 213 -215 0
61 -215 -216 0
164 -215 -216 0
213 -215 -216 0
-61 215 216 0
-164 215 216 0
-213 215 216 0
-61 -164 -213 216 0
61 164 213 -216 0
163 -217 0
215 -217 0
-163 -215 217 0
-163 -215 -218 0
163 215 -218 0
-163 215 218 0
163 -215 218 0
192 -219 0
-194 -219 0
196 -219 0
-198 -219 0
200 -219 0
202 -219 0
-204 -219 0
206 -219 0
-208 -219 0
-210 -219 0
-212 -219 0
-214 -219 0
-216 -219 0
-217 -219 0
-218 -219 0
-192 194 -196 198 -200 -202 204 -206 208 210 212 214 216 217 218 219 0
219 0
c main::$tmp::return_value_nondet_char!0@1#1 17 18 19 20 21 22 23 24
c symex::nondet1 9 10 11 12 13 14 15 16
c symex::nondet0 1 2 3 4 5 6 7 8
c main::$tmp::return_value_nondet_char$0!0@1#2 9 10 11 12 13 14 15 16
c __CPROVER_rounding_mode!0#1 FALSE FALSE FALSE FALSE FALSE FALSE FALSE FALSE FALSE FALSE FALSE FALSE FALSE FALSE FALSE FALSE FALSE FALSE FALSE FALSE FALSE FALSE FALSE FALSE FALSE FALSE FALSE FALSE FALSE FALSE FALSE FALSE
c main::$tmp::return_value_nondet_char$0!0@1#1 25 26 27 28 29 30 31 32
c __CPROVER_memory_leak#1 FALSE FALSE FALSE FALSE FALSE FALSE FALSE FALSE FALSE FALSE FALSE FALSE FALSE FALSE FALSE FALSE FALSE FALSE FALSE FALSE FALSE FALSE FALSE FALSE FALSE FALSE FALSE FALSE FALSE FALSE FALSE FALSE FALSE FALSE FALSE FALSE FALSE FALSE FALSE FALSE FALSE FALSE FALSE FALSE FALSE FALSE FALSE FALSE FALSE FALSE FALSE FALSE FALSE FALSE FALSE FALSE FALSE FALSE FALSE FALSE FALSE FALSE FALSE FALSE
c __CPROVER_max_malloc_size#1 FALSE FALSE FALSE FALSE FALSE FALSE FALSE FALSE FALSE FALSE FALSE FALSE FALSE FALSE FALSE FALSE FALSE FALSE FALSE FALSE FALSE FALSE FALSE FALSE FALSE FALSE FALSE FALSE FALSE FALSE FALSE FALSE FALSE FALSE FALSE FALSE FALSE FALSE FALSE FALSE FALSE FALSE FALSE FALSE FALSE FALSE FALSE FALSE FALSE FALSE FALSE FALSE FALSE FALSE FALSE TRUE FALSE FALSE FALSE FALSE FALSE FALSE FALSE FALSE
c __CPROVER_deallocated#1 FALSE FALSE FALSE FALSE FALSE FALSE FALSE FALSE FALSE FALSE FALSE FALSE FALSE FALSE FALSE FALSE FALSE FALSE FALSE FALSE FALSE FALSE FALSE FALSE FALSE FALSE FALSE FALSE FALSE FALSE FALSE FALSE FALSE FALSE FALSE FALSE FALSE FALSE FALSE FALSE FALSE FALSE FALSE FALSE FALSE FALSE FALSE FALSE FALSE FALSE FALSE FALSE FALSE FALSE FALSE FALSE FALSE FALSE FALSE FALSE FALSE FALSE FALSE FALSE
c main::$tmp::return_value_nondet_char!0@1#2 1 2 3 4 5 6 7 8
c __CPROVER_dead_object#1 FALSE FALSE FALSE FALSE FALSE FALSE FALSE FALSE FALSE FALSE FALSE FALSE FALSE FALSE FALSE FALSE FALSE FALSE FALSE FALSE FALSE FALSE FALSE FALSE FALSE FALSE FALSE FALSE FALSE FALSE FALSE FALSE FALSE FALSE FALSE FALSE FALSE FALSE FALSE FALSE FALSE FALSE FALSE FALSE FALSE FALSE FALSE FALSE FALSE FALSE FALSE FALSE FALSE FALSE FALSE FALSE FALSE FALSE FALSE FALSE FALSE FALSE FALSE FALSE
